Function: get_partitions took 3.0040740966796875e-05 seconds
Function: map_flows_partitions took 4.291534423828125e-06 seconds
Building model with:
3 devices, 10 partitions and 1 flows
Using license file /home/anup/gurobi.lic
Academic license - for non-commercial use only
Function: MIP.add_frac_mem_var took 0.0003337860107421875 seconds
Function: MIP.add_coverage_constraints took 0.00032448768615722656 seconds
Function: MIP.add_accuracy_constraints took 0.0005886554718017578 seconds
Function: MIP.add_capacity_constraints took 0.0005815029144287109 seconds
Changed value of parameter TimeLimit to 120.0
   Prev: inf  Min: 0.0  Max: inf  Default: inf
Changed value of parameter NonConvex to 2
   Prev: -1  Min: -1  Max: 2  Default: -1
Parameter NonConvex unchanged
   Value: 2  Min: -1  Max: 2  Default: -1
--------------------------------------------------
Starting model update
Model update took: 3.5762786865234375e-05 s
--------------------------------------------------
Starting model optimize
Gurobi Optimizer version 9.0.0 build v9.0.0rc2 (linux64)
Optimize a model with 56 rows, 89 columns and 184 nonzeros
Model fingerprint: 0x50e2a43b
Model has 6 quadratic constraints
Model has 5 general constraints
Variable types: 85 continuous, 4 integer (0 binary)
Coefficient statistics:
  Matrix range     [1e-04, 8e+03]
  QMatrix range    [1e+00, 1e+00]
  QLMatrix range   [1e+00, 1e+00]
  Objective range  [1e+00, 1e+00]
  Bounds range     [1e+00, 3e+04]
  RHS range        [1e+00, 2e+01]

---------------------------------------------------------------------------
Multi-objectives: starting optimization with 2 objectives ... 
---------------------------------------------------------------------------

Multi-objectives: applying initial presolve ...
---------------------------------------------------------------------------

Presolve removed 22 rows and 12 columns
Presolve time: 0.00s
Presolved: 58 rows and 78 columns
---------------------------------------------------------------------------

Multi-objectives: optimize objective 1 (ns) ...
---------------------------------------------------------------------------

Presolve removed 7 rows and 16 columns
Presolve time: 0.00s
Presolved: 75 rows, 63 columns, 216 nonzeros
Presolved model has 6 SOS constraint(s)
Presolved model has 6 bilinear constraint(s)
Variable types: 43 continuous, 20 integer (16 binary)

Root relaxation: objective 1.020408e+01, 28 iterations, 0.00 seconds

    Nodes    |    Current Node    |     Objective Bounds      |     Work
 Expl Unexpl |  Obj  Depth IntInf | Incumbent    BestBd   Gap | It/Node Time

     0     0   10.20408    0    8          -   10.20408      -     -    0s
     0     0   10.20408    0    8          -   10.20408      -     -    0s
     0     0   10.20408    0    8          -   10.20408      -     -    0s
     0     0   10.20408    0    8          -   10.20408      -     -    0s
     0     0   10.20408    0    9          -   10.20408      -     -    0s
     0     0   10.20408    0    8          -   10.20408      -     -    0s
     0     0   10.20408    0    8          -   10.20408      -     -    0s
H    0     0                      17.8571429   10.20408  42.9%     -    0s
     0     2   10.26655    0   14   17.85714   10.26655  42.5%     -    0s
H   33    23                      14.2857143   10.71429  25.0%   5.8    0s
H   81    34                      12.5000000   10.78717  13.7%   4.5    0s
*  116    26              17      11.4285714   11.15160  2.42%   3.8    0s

Cutting planes:
  Gomory: 4
  Implied bound: 6
  MIR: 3
  Flow cover: 9
  RLT: 4
  Relax-and-lift: 3

Explored 147 nodes (545 simplex iterations) in 0.03 seconds
Thread count was 8 (of 8 available processors)

Solution count 4: 11.4286 12.5 14.2857 17.8571 

Optimal solution found (tolerance 1.00e-04)
Best objective 1.142857142857e+01, best bound 1.142857142857e+01, gap 0.0000%
---------------------------------------------------------------------------

Multi-objectives: optimize objective 2 (res) ...
---------------------------------------------------------------------------


Loaded user MIP start with objective 156.803

Presolve removed 9 rows and 18 columns
Presolve time: 0.00s
Presolved: 74 rows, 60 columns, 235 nonzeros
Presolved model has 6 bilinear constraint(s)
Variable types: 43 continuous, 17 integer (13 binary)

Root relaxation: objective 1.140703e+02, 39 iterations, 0.00 seconds

    Nodes    |    Current Node    |     Objective Bounds      |     Work
 Expl Unexpl |  Obj  Depth IntInf | Incumbent    BestBd   Gap | It/Node Time

     0     0  114.07028    0    6  156.80337  114.07028  27.3%     -    0s
     0     0  119.19427    0    4  156.80337  119.19427  24.0%     -    0s
     0     0  129.40173    0    3  156.80337  129.40173  17.5%     -    0s
     0     0  129.40173    0    4  156.80337  129.40173  17.5%     -    0s
     0     0  137.03067    0    3  156.80337  137.03067  12.6%     -    0s
     0     0  139.05342    0    3  156.80337  139.05342  11.3%     -    0s
     0     0  144.74443    0    2  156.80337  144.74443  7.69%     -    0s
     0     0  144.74443    0    2  156.80337  144.74443  7.69%     -    0s
     0     2  144.74443    0    2  156.80337  144.74443  7.69%     -    0s
*    8     4               4     154.6324445  154.49636  0.09%   1.9    0s
*   11     4               5     154.6157627  154.50516  0.07%   2.0    0s
*   15     0               6     154.5051712  154.50516  0.00%   1.7    0s

Cutting planes:
  MIR: 2

Explored 19 nodes (153 simplex iterations) in 0.05 seconds
Thread count was 8 (of 8 available processors)

Solution count 4: 154.505 154.616 154.632 156.803 

Optimal solution found (tolerance 1.00e-04)
Best objective 1.545051712356e+02, best bound 1.545051712356e+02, gap 0.0000%

---------------------------------------------------------------------------
Multi-objectives: solved in 0.05 seconds, solution count 8

Model optimize took: 0.05402684211730957 seconds
--------------------------------------------------

Solution quality statistics for model Netmon :
  Maximum violation:
    Bound       : 0.00000000e+00
    Constraint  : 2.51870453e-08
    Integrality : 0.00000000e+00

Throughput: 87.49124322019418 Mpps, ns per packet: 11.429715285714288
Resources: 154.50517123562935
Used Cores: 14.0, Total CPUS: 2, Switch Memory: 464.99130628347154

Sketch (0) (cm: eps0: 0.03125, del0: 0.05, min_mem: 0.33984375)
Par: 1, Rows: 1
(0.000,0)    (1.000,1)    (0.000,2)    
Total frac: 1.000
Par: 2, Rows: 1
(0.000,2)    (1.000,1)    (0.000,0)    
Total frac: 1.000
Par: 3, Rows: 1
(1.000,1)    (0.000,2)    (0.000,0)    
Total frac: 1.000

Sketch (1) (cm: eps0: 1.25e-06, del0: 0.05, min_mem: 8494.6328125)
Par: 1, Rows: 1
(0.018,1)    (0.491,0)    (0.491,2)    
Total frac: 1.000
Par: 2, Rows: 1
(0.491,2)    (0.491,0)    (0.018,1)    
Total frac: 1.000
Par: 3, Rows: 1
(0.491,2)    (0.018,1)    (0.491,0)    
Total frac: 1.000

Sketch (2) (cm: eps0: 0.625, del0: 0.025, min_mem: 0.01953125)
Par: 1, Rows: 1
(1.000,1)    (0.000,2)    (0.000,0)    
Total frac: 1.000
Par: 2, Rows: 1
(0.000,0)    (0.000,2)    (1.000,1)    
Total frac: 1.000
Par: 3, Rows: 1
(0.000,2)    (0.000,0)    (1.000,1)    
Total frac: 1.000
Par: 4, Rows: 1
(0.000,2)    (1.000,1)    (0.000,0)    
Total frac: 1.000

Device (0) CPU_1:
cores_sketch: 2.0, cores_dpdk: 5.0
Rows total: 1.4726948972479286
Mem total: 12510.00239696358
Throughput: 87.49124322019418

Device (1) P4_1:
Rows total: 7.054610206264695
Mem total: 464.99130628347154
Throughput: 148.0

Device (2) CPU_2:
cores_sketch: 2.0, cores_dpdk: 5.0
Rows total: 1.4726948964873752
Mem total: 12510.002390502954
Throughput: 87.49124322019418
--------------------------------------------------
Function: MIP.solve took 0.06476593017578125 seconds
Function: solve took 0.06509637832641602 seconds
